(declare-fun temp682_1 () (_ BitVec 64))
(declare-fun var154683 () (_ BitVec 64))
(declare-fun k!0 () Bool)
(declare-fun ARGNAME_source_NAMEEND_LEN () (_ BitVec 64))
(declare-fun ARGNAME_destination_NAMEEND_LEN () (_ BitVec 64))
(declare-fun temp682_3 () (_ BitVec 64))
(declare-fun temp682_2 () (_ BitVec 64))
(declare-fun temp682_4 () (_ BitVec 64))
(declare-fun var266826 () (_ BitVec 64))
(declare-fun var266828 () (_ BitVec 64))
(declare-fun temp682_6 () (_ BitVec 64))
(declare-fun temp682_5 () (_ BitVec 64))
(declare-fun temp682_7 () (_ BitVec 64))
(declare-fun var594506 () (_ BitVec 64))
(declare-fun var594508 () (_ BitVec 64))
(declare-fun temp682_9 () (_ BitVec 64))
(declare-fun temp682_8 () (_ BitVec 64))
(declare-fun temp682_10 () (_ BitVec 64))
(declare-fun var1053642 () (_ BitVec 64))
(declare-fun temp682_12 () (_ BitVec 64))
(declare-fun temp682_11 () (_ BitVec 64))
(declare-fun temp682_13 () (_ BitVec 64))
(declare-fun var1774538 () (_ BitVec 64))
(declare-fun temp682_14 () (_ BitVec 64))
(declare-fun var2429514 () (_ BitVec 64))
(declare-fun temp682_15 () (_ BitVec 64))
(declare-fun var3871306 () (_ BitVec 64))
(declare-fun temp682_16 () (_ BitVec 64))
(declare-fun ARGNAME_input_NAMEEND_DIM () (_ BitVec 64))
(declare-fun var154805 () (_ BitVec 64))
(declare-fun temp682_17 () (_ BitVec 64))
(declare-fun temp682_19 () (_ BitVec 64))
(declare-fun temp682_18 () (_ BitVec 64))
(declare-fun temp682_20 () (_ BitVec 64))
(declare-fun var5247562 () (_ BitVec 64))
(declare-fun var5247564 () (_ BitVec 64))
(declare-fun temp682_22 () (_ BitVec 64))
(declare-fun temp682_21 () (_ BitVec 64))
(declare-fun temp682_23 () (_ BitVec 64))
(declare-fun var5968458 () (_ BitVec 64))
(declare-fun var5968460 () (_ BitVec 64))
(declare-fun temp682_25 () (_ BitVec 64))
(declare-fun temp682_24 () (_ BitVec 64))
(declare-fun temp682_26 () (_ BitVec 64))
(declare-fun var6885962 () (_ BitVec 64))
(declare-fun var6885964 () (_ BitVec 64))
(declare-fun temp682_28 () (_ BitVec 64))
(declare-fun temp682_27 () (_ BitVec 64))
(declare-fun var7738309 () (_ BitVec 64))
(declare-fun temp682_29 () (_ BitVec 64))
(declare-fun temp682_30 () (_ BitVec 64))
(declare-fun var7803850 () (_ BitVec 64))
(declare-fun temp682_32 () (_ BitVec 64))
(declare-fun temp682_31 () (_ BitVec 64))
(declare-fun temp682_34 () (_ BitVec 64))
(declare-fun temp682_33 () (_ BitVec 64))
(declare-fun var154934 () (_ BitVec 64))
(declare-fun var8719225 () (_ BitVec 64))
(declare-fun temp682_36 () (_ BitVec 64))
(declare-fun temp682_35 () (_ BitVec 64))
(declare-fun var8785217 () (_ BitVec 64))
(declare-fun var8785218 () (_ BitVec 64))
(declare-fun temp682_37 () (_ BitVec 64))
(declare-fun temp682_38 () (_ BitVec 64))
(declare-fun var8850759 () (_ BitVec 64))
(declare-fun var8916306 () (_ BitVec 64))
(assert (= var154683
   (ite (= ARGNAME_source_NAMEEND_LEN ARGNAME_destination_NAMEEND_LEN)
        #x0000000000000001
        #x0000000000000000)))
(assert (= temp682_1 #x0000000000000001))
(assert (= var154683 temp682_1))
(assert (= temp682_3 #x0000000000000000))
(assert (= temp682_2 temp682_3))
(assert (= temp682_4 #x0000000000000005))
(assert (= var266826 temp682_4))
(assert (= var266828 var266826))
(assert (= temp682_6 #x0000000000000000))
(assert (= temp682_5 temp682_6))
(assert (= temp682_7 #x0000000000000005))
(assert (= var594506 temp682_7))
(assert (= var594508 var594506))
(assert (= temp682_9 #x0000000000000000))
(assert (= temp682_8 temp682_9))
(assert (= temp682_10 #x0000000000000000))
(assert (= var1053642 temp682_10))
(assert (= temp682_12 #x0000000000000000))
(assert (= temp682_11 temp682_12))
(assert (= temp682_13 #x0000000000000000))
(assert (= var1774538 temp682_13))
(assert (= temp682_14 #x0000000000000005))
(assert (= var2429514 temp682_14))
(assert (= temp682_15 #x0000000000000005))
(assert (= var3871306 temp682_15))
(assert (= temp682_16 #x0000000000000000))
(assert (= var154805
   (ite (= ARGNAME_input_NAMEEND_DIM temp682_16)
        #x0000000000000001
        #x0000000000000000)))
(assert (= temp682_17 #x0000000000000000))
(assert (= var154805 temp682_17))
(assert (= temp682_19 #x0000000000000000))
(assert (= temp682_18 temp682_19))
(assert (= temp682_20 #x0000000000000005))
(assert (= var5247562 temp682_20))
(assert (= var5247564 var5247562))
(assert (= temp682_22 #x0000000000000000))
(assert (= temp682_21 temp682_22))
(assert (= temp682_23 #x0000000000000005))
(assert (= var5968458 temp682_23))
(assert (= var5968460 var5968458))
(assert (= temp682_25 #x0000000000000000))
(assert (= temp682_24 temp682_25))
(assert (= temp682_26 #x0000000000000005))
(assert (= var6885962 temp682_26))
(assert (= var6885964 var6885962))
(assert (= temp682_28 #x0000000000000000))
(assert (= temp682_27 temp682_28))
(assert (= var7738309
   (ite (bvslt temp682_27 ARGNAME_source_NAMEEND_LEN)
        #x0000000000000001
        #x0000000000000000)))
(assert (= temp682_29
   (ite (= var7738309 #x0000000000000001) ARGNAME_source_NAMEEND_LEN temp682_27)))
(assert (= temp682_30 #x0000000000000000))
(assert (= var7803850 temp682_30))
(assert (= temp682_32 #xffffffffffffffff))
(assert (= temp682_31 temp682_32))
(assert (= temp682_34 #xffffffffffffffff))
(assert (= temp682_33 temp682_34))
(assert (= var154934 (bvsub ARGNAME_input_NAMEEND_DIM ARGNAME_source_NAMEEND_LEN)))
(assert (= var8719225 var154934))
(assert (= temp682_36 #x0000000000000000))
(assert (= temp682_35 temp682_36))
(assert (= var8785217 var8719225))
(assert (= var8785218
   (ite (bvslt temp682_35 var8785217) #x0000000000000001 #x0000000000000000)))
(assert (= temp682_37 (ite (= var8785218 #x0000000000000001) var8719225 temp682_35)))
(assert (= temp682_38 #x0000000000000000))
(assert (= var8850759 temp682_38))
(assert (= var8916306 var8850759))
(model-add temp682_1 () (_ BitVec 64) #x0000000000000001)
(model-add var154683 () (_ BitVec 64) #x0000000000000001)
(model-del k!0)
(model-add ARGNAME_source_NAMEEND_LEN
           ()
           (_ BitVec 64)
           (ite k!0
                ARGNAME_destination_NAMEEND_LEN
                (bvnot ARGNAME_destination_NAMEEND_LEN)))




